p edge 40 189 15
v 2 4 5
v 2 22 29
v 3 9 12 39
v 2 8 16
v 4 15 21 25 31
v 2 30 36
v 6 2 6 18 19 28 33
v 2 10 37
v 2 27 35
v 2 14 32
v 3 7 34 38
v 2 13 40
v 2 20 23
v 4 3 17 24 26
v 2 1 11
e 1 13
e 1 14
e 1 15
e 1 26
e 1 27
e 1 28
e 1 29
e 1 35
e 1 40
e 2 9
e 2 10
e 2 20
e 2 21
e 2 22
e 2 23
e 2 25
e 2 27
e 2 30
e 2 31
e 2 33
e 2 35
e 2 39
e 3 9
e 3 10
e 3 15
e 3 17
e 3 20
e 3 30
e 3 39
e 4 15
e 4 27
e 4 34
e 4 35
e 4 40
e 5 6
e 5 7
e 5 9
e 5 12
e 5 13
e 5 19
e 5 20
e 5 23
e 5 24
e 5 28
e 5 29
e 5 38
e 6 15
e 6 17
e 6 18
e 6 28
e 6 34
e 6 37
e 6 39
e 7 13
e 7 19
e 7 20
e 7 24
e 7 27
e 7 30
e 7 31
e 7 39
e 8 11
e 8 12
e 8 25
e 8 30
e 8 36
e 8 39
e 9 11
e 9 13
e 9 16
e 9 18
e 9 20
e 9 25
e 9 29
e 9 30
e 9 36
e 10 11
e 10 13
e 10 14
e 10 16
e 10 17
e 10 19
e 10 22
e 10 24
e 10 27
e 10 33
e 10 36
e 11 19
e 11 21
e 11 34
e 11 36
e 12 13
e 12 18
e 12 27
e 12 30
e 12 33
e 12 34
e 12 35
e 12 39
e 13 18
e 13 22
e 13 24
e 13 32
e 13 33
e 13 37
e 13 38
e 14 17
e 14 24
e 14 26
e 14 31
e 14 34
e 14 39
e 15 16
e 15 33
e 15 39
e 16 17
e 16 19
e 16 27
e 16 28
e 16 31
e 16 33
e 16 35
e 16 39
e 17 19
e 17 23
e 17 24
e 17 28
e 17 33
e 17 38
e 18 24
e 18 27
e 18 32
e 18 33
e 18 34
e 18 35
e 18 38
e 18 40
e 19 26
e 19 29
e 19 33
e 19 40
e 20 22
e 20 24
e 20 28
e 20 35
e 20 37
e 20 38
e 21 22
e 21 25
e 21 34
e 21 39
e 22 25
e 22 29
e 22 32
e 22 33
e 22 37
e 22 38
e 22 39
e 23 25
e 23 32
e 23 37
e 24 30
e 25 37
e 25 39
e 26 28
e 26 32
e 26 35
e 26 36
e 26 39
e 27 31
e 27 34
e 27 38
e 28 30
e 28 31
e 28 35
e 28 40
e 29 34
e 29 36
e 29 38
e 30 32
e 30 33
e 30 34
e 30 37
e 30 39
e 31 39
e 33 40
e 35 40
e 36 39
e 38 40
